NAME          MPSXNAME
ROWS
 N  X5      
 E  X6      
 E  X7      
 E  X8      
COLUMNS
    X0        X6        1.0000000000
    X1        X5        -4.000000000
    X1        X6        3.0000000000
    X1        X8        1.0000000000
    X2        X5        -4.000000000
    X2        X7        1.0000000000
    X3        X5        -2.000000000
    X3        X7        1.0000000000
    X4        X5        -2.000000000
    X4        X7        -2.000000000
    X4        X8        -1.000000000
RHS
    ..RHS     X6        4.0000000000
QUADOBJ
    X1        X0        -2.000000000
    X0        X0        2.0000000000
    X3        X3        2.0000000000
    X2        X1        2.0000000000
    X4        X4        2.0000000000
    X2        X2        2.0000000000
    X1        X1        4.0000000000
ENDATA
